#=======================================================
# FHI-aims file: geometry-16.in
# Created using the Atomic Simulation Environment (ASE)
# Mon Feb  7 12:08:17 2022
#=======================================================
lattice_vector 2.4658686672815109 1.4236699388412444 4.5402028778594570 
lattice_vector -2.4658686672815113 1.4236699388412444 4.5402028778594570 
lattice_vector -0.0000000000000001 -2.8473398776824883 4.5402028778594570 
atom 0.0000000000000003 0.0000000000000004 4.8397953676133989 Fe
    initial_charge         3.000000
    initial_moment         5.000000
atom 0.0000000000000001 0.0000000000000003 1.9705089491757830 Fe
    initial_charge         3.000000
    initial_moment        -5.000000
atom 0.0000000000000010 0.0000000000000005 8.7808132659649623 Fe
    initial_charge         3.000000
    initial_moment         5.000000
atom 0.0000000000000007 0.0000000000000005 11.6500996844025870 Fe
    initial_charge         3.000000
    initial_moment        -5.000000
atom -0.9443232103768666 1.4236699388412444 7.9453550362540488 O
    initial_charge        -2.000000
atom -0.7607727284523207 -1.5296428589902662 7.9453550362540479 O
    initial_charge        -2.000000
atom 1.7050959388291886 0.1059729201490229 7.9453550362540479 O
    initial_charge        -2.000000
atom 0.9443232103768671 -1.4236699388412439 5.6752535973243186 O
    initial_charge        -2.000000
atom 0.7607727284523210 1.5296428589902673 5.6752535973243186 O
    initial_charge        -2.000000
atom -1.7050959388291889 -0.1059729201490216 5.6752535973243203 O
    initial_charge        -2.000000
