Na Cl                                   
   1.00000000000000     
     3.4628269999999999    0.0000000000000000    0.0000000000000000
     0.0000000000000000    3.4628269999999999    0.0000000000000000
     0.0000000000000000    0.0000000000000000    3.4628269999999999
   Cl   Na
     1     1
Direct
  0.4999989260000035  0.4999989260000035  0.4999989260000035
  0.0000000000000000  0.0000000000000000  0.0000000000000000
 
  0.00000000E+00  0.00000000E+00  0.00000000E+00
  0.00000000E+00  0.00000000E+00  0.00000000E+00
