#= General Settings =#
  PREC = MED
  ISTART = 1
  ICHARG = 1
 ISPIN = 1

#= Parallelization =#

#= Ionic Relaxation Settings =#
  NSW = 0

#= Electronic Relxation Settings =#
  ENCUT = 520
  NELMIN = 5
  LREAL = .FALSE.
  ALGO = FAST

#= Write flags =#
  LCHARG = .TRUE.
  LWAVE = .FALSE.
  LELF = .TRUE.
  LHVAR = .TRUE.
  LVTOT = .TRUE.

#= DOS =#
  ISMEAR = -5

#= Uncategorized/OQMD codes  =#
  LORBIT = 11
