Be C F H O N Li                         
 1.
    11.1767740000000000    0.0000000000000000    0.6191300000000000
     0.0000000000000000    4.2275169999999997    0.0000000000000000
    -1.1449380000000000    0.0000000000000000    8.5782469999999993
   Be   C    F    H    Li   N    O 
     4     4    16    32     4     4     4
Direct
  0.3615995253000008  0.8511922612999996  0.9218541477000031
  0.6383998860999966  0.3511919405000015  0.5781457609000000
  0.6384008894999980  0.1488060148000017  0.0781461078999968
  0.3615996405999979  0.6488110664000004  0.4218545587999998
  0.1222198672999966  0.2617564694999999  0.5157603725999991
  0.8777803137000006  0.7617567902000033  0.9842383147000007
  0.8777795407999989  0.7382465374999967  0.4842387899999991
  0.1222198640000016  0.2382438512999983  0.0157596266000013
  0.2495848435000028  0.7136434446999971  0.8356724029999967
  0.7504163441999978  0.2136454894000011  0.6643273775000011
  0.7504155713000031  0.2863571967999974  0.1643278526999978
  0.6457351373000009  0.7946578975999969  0.1065958761999966
  0.3542642673999978  0.2946599423000009  0.3934025403999968
  0.6428044684000014  0.2373355167000000  0.9108527725000002
  0.3571949429000014  0.7373334720000031  0.5891471361000029
  0.3571950581999985  0.7626651248000016  0.0891475471999996
  0.6428044652000011  0.2626671694999985  0.4108520265000024
  0.4835494403999974  0.7506557119999968  0.8635773362999970
  0.5164500894999975  0.2506577567000008  0.6364237295000024
  0.5164510928999988  0.2493449294999976  0.1364240764999991
  0.4835502067000021  0.7493428848000008  0.3635753690000030
  0.2495849586999981  0.7863551521000005  0.3356728141000005
  0.3542650402999996  0.2053403784999972  0.8934020650999983
  0.6457351406000029  0.7053383338000003  0.6065966222000014
  0.9949392369999970  0.0439572419000029  0.7604435694999978
  0.0050601744000005  0.5439551971999990  0.7395563390999982
  0.0050601710999985  0.9560433995999986  0.2395555931000004
  0.9949393521999994  0.4560454443000026  0.2604439806000016
  0.0374054807999968  0.2501539148999967  0.5669061545999980
  0.9625949372999969  0.7501542357000019  0.9330948471000013
  0.9625949340000020  0.7498467265999977  0.4330941010000018
  0.0374045893000030  0.2498440403999993  0.0669054727000002
  0.1308904233000021  0.4889418206999991  0.4593982518999979
  0.8691098696000026  0.9889445068999976  0.0406001006000025
  0.8691097542999984  0.5110564553000003  0.5405996893999969
  0.1308913148000030  0.0110561345999969  0.9593989338000029
  0.8749086512000019  0.2390173548999996  0.7257388781999978
  0.1280309736999996  0.0698707964999983  0.4342532981999980
  0.8719704443999987  0.5698711172000017  0.0657473045000003
  0.8719695595999966  0.9301274796000030  0.5657481145999981
  0.1280308584999972  0.4301295242999998  0.9342528871000013
  0.2349650036000028  0.4164477352000020  0.7080999061000028
  0.7650354144000033  0.9164480558999983  0.7919010955999966
  0.7650355297000004  0.5835529062999996  0.2919015067000004
  0.2349642308000028  0.0835525856000032  0.2081003812999995
  0.2998474190999971  0.2040441094000016  0.5768667243999985
  0.7001519923000004  0.7040444301999997  0.9231331841999975
  0.7001528771000025  0.7959565320999999  0.4231323740999997
  0.2998484224999984  0.2959538459000015  0.0768670714000024
  0.2174333638999997  0.0244587999999979  0.6974991822999996
  0.7825678236999991  0.5244591208000031  0.8025005981999982
  0.7825661627000002  0.9755442068999969  0.3025011375000020
  0.2174325909999979  0.4755438862000005  0.1974996575000034
  0.1250916482999997  0.7390200410999981  0.7742609662999982
  0.1250908753999980  0.7609809212000016  0.2742614415999967
  0.8749087664999990  0.2609806004000035  0.2257392893000016
  0.5047258676000013  0.8290255866999985  0.6607490744000017
  0.5047257458000018  0.6709706446999988  0.1607471712000006
  0.4952746657000020  0.1709726893000010  0.3392523384000015
  0.4952745504999996  0.3290252660000021  0.8392519272999976
  0.2221862620000010  0.2268683802999973  0.6330171673999985
  0.7778141560999998  0.7268663356000005  0.8669838344000027
  0.7778141527999978  0.7731322611999971  0.3669830883000031
  0.2221862586999990  0.2731343059000011  0.1330164212999989
  0.9528853597999998  0.2546080657999994  0.7863867286000001
  0.0471149397000019  0.7546060211000025  0.7136131159000030
  0.0471149363999999  0.7453925757000022  0.2136123698999981
  0.9528854750999969  0.2453922548999969  0.2863871396999969
 
  0.00000000E+00  0.00000000E+00  0.00000000E+00
  0.00000000E+00  0.00000000E+00  0.00000000E+00
  0.00000000E+00  0.00000000E+00  0.00000000E+00
  0.00000000E+00  0.00000000E+00  0.00000000E+00
  0.00000000E+00  0.00000000E+00  0.00000000E+00
  0.00000000E+00  0.00000000E+00  0.00000000E+00
  0.00000000E+00  0.00000000E+00  0.00000000E+00
  0.00000000E+00  0.00000000E+00  0.00000000E+00
  0.00000000E+00  0.00000000E+00  0.00000000E+00
  0.00000000E+00  0.00000000E+00  0.00000000E+00
  0.00000000E+00  0.00000000E+00  0.00000000E+00
  0.00000000E+00  0.00000000E+00  0.00000000E+00
  0.00000000E+00  0.00000000E+00  0.00000000E+00
  0.00000000E+00  0.00000000E+00  0.00000000E+00
  0.00000000E+00  0.00000000E+00  0.00000000E+00
  0.00000000E+00  0.00000000E+00  0.00000000E+00
  0.00000000E+00  0.00000000E+00  0.00000000E+00
  0.00000000E+00  0.00000000E+00  0.00000000E+00
  0.00000000E+00  0.00000000E+00  0.00000000E+00
  0.00000000E+00  0.00000000E+00  0.00000000E+00
  0.00000000E+00  0.00000000E+00  0.00000000E+00
  0.00000000E+00  0.00000000E+00  0.00000000E+00
  0.00000000E+00  0.00000000E+00  0.00000000E+00
  0.00000000E+00  0.00000000E+00  0.00000000E+00
  0.00000000E+00  0.00000000E+00  0.00000000E+00
  0.00000000E+00  0.00000000E+00  0.00000000E+00
  0.00000000E+00  0.00000000E+00  0.00000000E+00
  0.00000000E+00  0.00000000E+00  0.00000000E+00
  0.00000000E+00  0.00000000E+00  0.00000000E+00
  0.00000000E+00  0.00000000E+00  0.00000000E+00
  0.00000000E+00  0.00000000E+00  0.00000000E+00
  0.00000000E+00  0.00000000E+00  0.00000000E+00
  0.00000000E+00  0.00000000E+00  0.00000000E+00
  0.00000000E+00  0.00000000E+00  0.00000000E+00
  0.00000000E+00  0.00000000E+00  0.00000000E+00
  0.00000000E+00  0.00000000E+00  0.00000000E+00
  0.00000000E+00  0.00000000E+00  0.00000000E+00
  0.00000000E+00  0.00000000E+00  0.00000000E+00
  0.00000000E+00  0.00000000E+00  0.00000000E+00
  0.00000000E+00  0.00000000E+00  0.00000000E+00
  0.00000000E+00  0.00000000E+00  0.00000000E+00
  0.00000000E+00  0.00000000E+00  0.00000000E+00
  0.00000000E+00  0.00000000E+00  0.00000000E+00
  0.00000000E+00  0.00000000E+00  0.00000000E+00
  0.00000000E+00  0.00000000E+00  0.00000000E+00
  0.00000000E+00  0.00000000E+00  0.00000000E+00
  0.00000000E+00  0.00000000E+00  0.00000000E+00
  0.00000000E+00  0.00000000E+00  0.00000000E+00
  0.00000000E+00  0.00000000E+00  0.00000000E+00
  0.00000000E+00  0.00000000E+00  0.00000000E+00
  0.00000000E+00  0.00000000E+00  0.00000000E+00
  0.00000000E+00  0.00000000E+00  0.00000000E+00
  0.00000000E+00  0.00000000E+00  0.00000000E+00
  0.00000000E+00  0.00000000E+00  0.00000000E+00
  0.00000000E+00  0.00000000E+00  0.00000000E+00
  0.00000000E+00  0.00000000E+00  0.00000000E+00
  0.00000000E+00  0.00000000E+00  0.00000000E+00
  0.00000000E+00  0.00000000E+00  0.00000000E+00
  0.00000000E+00  0.00000000E+00  0.00000000E+00
  0.00000000E+00  0.00000000E+00  0.00000000E+00
  0.00000000E+00  0.00000000E+00  0.00000000E+00
  0.00000000E+00  0.00000000E+00  0.00000000E+00
  0.00000000E+00  0.00000000E+00  0.00000000E+00
  0.00000000E+00  0.00000000E+00  0.00000000E+00
  0.00000000E+00  0.00000000E+00  0.00000000E+00
  0.00000000E+00  0.00000000E+00  0.00000000E+00
  0.00000000E+00  0.00000000E+00  0.00000000E+00
  0.00000000E+00  0.00000000E+00  0.00000000E+00
