Be C F H O N Li
 1.0
11.176774 0.000000 0.619130
0.000000 4.227517 0.000000
-1.144938 0.000000 8.578247
Be C F H Li N O
4 4 16 32 4 4 4
direct
 0.3615995253 0.8511922613 0.9218541477
 0.6383998861 0.3511919405 0.5781457609
 0.6384008895 0.1488060148 0.0781461079
 0.3615996406 0.6488110664 0.4218545588
 0.1222198673 0.2617564695 0.5157603726
 0.8777803137 0.7617567902 0.9842383147
 0.8777795408 0.7382465375 0.4842387900
 0.1222198640 0.2382438513 0.0157596266
 0.2495848435 0.7136434447 0.8356724030
 0.7504163442 0.2136454894 0.6643273775
 0.7504155713 0.2863571968 0.1643278527
 0.6457351373 0.7946578976 0.1065958762
 0.3542642674 0.2946599423 0.3934025404
 0.6428044684 0.2373355167 0.9108527725
 0.3571949429 0.7373334720 0.5891471361
 0.3571950582 0.7626651248 0.0891475472
 0.6428044652 0.2626671695 0.4108520265
 0.4835494404 0.7506557120 0.8635773363
 0.5164500895 0.2506577567 0.6364237295
 0.5164510929 0.2493449295 0.1364240765
 0.4835502067 0.7493428848 0.3635753690
 0.2495849587 0.7863551521 0.3356728141
 0.3542650403 0.2053403785 0.8934020651
 0.6457351406 0.7053383338 0.6065966222
 0.9949392370 0.0439572419 0.7604435695
 0.0050601744 0.5439551972 0.7395563391
 0.0050601711 0.9560433996 0.2395555931
 0.9949393522 0.4560454443 0.2604439806
 0.0374054808 0.2501539149 0.5669061546
 0.9625949373 0.7501542357 0.9330948471
 0.9625949340 0.7498467266 0.4330941010
 0.0374045893 0.2498440404 0.0669054727
 0.1308904233 0.4889418207 0.4593982519
 0.8691098696 0.9889445069 0.0406001006
 0.8691097543 0.5110564553 0.5405996894
 0.1308913148 0.0110561346 0.9593989338
 0.8749086512 0.2390173549 0.7257388782
 0.1280309737 0.0698707965 0.4342532982
 0.8719704444 0.5698711172 0.0657473045
 0.8719695596 0.9301274796 0.5657481146
 0.1280308585 0.4301295243 0.9342528871
 0.2349650036 0.4164477352 0.7080999061
 0.7650354144 0.9164480559 0.7919010956
 0.7650355297 0.5835529063 0.2919015067
 0.2349642308 0.0835525856 0.2081003813
 0.2998474191 0.2040441094 0.5768667244
 0.7001519923 0.7040444302 0.9231331842
 0.7001528771 0.7959565321 0.4231323741
 0.2998484225 0.2959538459 0.0768670714
 0.2174333639 0.0244588000 0.6974991823
 0.7825678237 0.5244591208 0.8025005982
 0.7825661627 0.9755442069 0.3025011375
 0.2174325910 0.4755438862 0.1974996575
 0.1250916483 0.7390200411 0.7742609663
 0.1250908754 0.7609809212 0.2742614416
 0.8749087665 0.2609806004 0.2257392893
 0.5047258676 0.8290255867 0.6607490744
 0.5047257458 0.6709706447 0.1607471712
 0.4952746657 0.1709726893 0.3392523384
 0.4952745505 0.3290252660 0.8392519273
 0.2221862620 0.2268683803 0.6330171674
 0.7778141561 0.7268663356 0.8669838344
 0.7778141528 0.7731322612 0.3669830883
 0.2221862587 0.2731343059 0.1330164213
 0.9528853598 0.2546080658 0.7863867286
 0.0471149397 0.7546060211 0.7136131159
 0.0471149364 0.7453925757 0.2136123699
 0.9528854751 0.2453922549 0.2863871397
