Na Cl
 1.0
3.462827 0.000000 0.000000
0.000000 3.462827 0.000000
0.000000 0.000000 3.462827
Cl Na
1 1
direct
 0.4999989260 0.4999989260 0.4999989260
 0.0000000000 0.0000000000 0.0000000000
