S Ti Li                                 
   1.00000000000000     
     3.4241083130383254   -0.0000058154238858   -0.0000074481981030
    -1.7120591928242870    2.9653736814632574   -0.0000000000004183
    -0.0000081342031360   -0.0000046962846086    6.1960187299306799
   Li   S    Ti
     1     2     1
Direct
  0.0000000000000000  0.0000000000000000  0.5000000000000000
  0.3333564992078256  0.6666782496039189  0.2375256786313698
  0.6666435007921743  0.3333217503960813  0.7624743213686302
  0.0000000000000000  0.0000000000000000  0.0000000000000000
 
  0.00000000E+00  0.00000000E+00  0.00000000E+00
  0.00000000E+00  0.00000000E+00  0.00000000E+00
  0.00000000E+00  0.00000000E+00  0.00000000E+00
  0.00000000E+00  0.00000000E+00  0.00000000E+00
