S Ti Li
 1.0
3.457000 0.000000 0.000000
-1.728500 2.993850 0.000000
0.000000 0.000000 6.180000
Li S Ti
1 2 1
direct
 0.0000000000 0.0000000000 0.5000000000
 0.3334000000 0.6667000000 0.2500000000
 0.6666000000 0.3333000000 0.7500000000
 0.0000000000 0.0000000000 0.0000000000
