As Ga                                   
   1.00000000000000     
     2.8686300307222261   -2.8686300307222261    0.0000000000000000
    -2.8686300307222261    0.0000000000000000   -2.8686300307222261
     2.8686300307222261    2.8686300307222261    0.0000000000000000
   As   Ga
     1     1
Direct
  0.7500015638999997  0.5000010425999974  0.2500005213000023
  0.0000000000000000  0.0000000000000000  0.0000000000000000
 
  0.00000000E+00  0.00000000E+00  0.00000000E+00
  0.00000000E+00  0.00000000E+00  0.00000000E+00
