As Ga
 1.0
2.855274 -2.855274 0.000000
-2.855274 0.000000 -2.855274
2.855274 2.855274 0.000000
As Ga
1 1
direct
 0.7500015639 0.5000010426 0.2500005213
 0.0000000000 0.0000000000 0.0000000000
