As Ga                                   
   1.00000000000000     
     2.6693460967906781    0.0000000000000000    0.0000000000000000
     0.0000000000000000    5.1883521371303818    0.0000000000000000
     0.0000000000000000    0.0000000000000000    2.7311289139313226
   As   Ga
     1     1
Direct
  0.0000000000000000  0.0000000000000000 -0.0006236207871043
  0.0000000000000000  0.5000000000000000  0.3506236207871057
 
  0.00000000E+00  0.00000000E+00  0.00000000E+00
  0.00000000E+00  0.00000000E+00  0.00000000E+00
