As Ga
 1.0
2.482000 0.000000 0.000000
0.000000 4.830000 0.000000
0.000000 0.000000 2.618000
As Ga
1 1
direct
 0.0000000000 0.0000000000 0.0000000000
 0.0000000000 0.5000000000 0.3500000000
